Translating instance to solver...

Set parameter TimeLimit to value 28800
Gurobi Optimizer version 11.0.2 build v11.0.2rc0 (linux64 - "Ubuntu 22.04.4 LTS")

CPU model: Intel(R) Xeon(R) Gold 5120 CPU @ 2.20GHz, instruction set [SSE2|AVX|AVX2|AVX512]
Thread count: 28 physical cores, 56 logical processors, using up to 28 threads

Academic license 2463511 - for non-commercial use only - registered to lu___@cefet-rj.br
Optimize a model with 113275 rows, 53993 columns and 256388 nonzeros
Model fingerprint: 0x105856f9
Variable types: 1 continuous, 53992 integer (53920 binary)
Coefficient statistics:
  Matrix range     [1e+00, 1e+05]
  Objective range  [3e-01, 8e-01]
  Bounds range     [1e+00, 7e+01]
  RHS range        [1e+00, 8e+01]
Presolve removed 92572 rows and 45510 columns
Presolve time: 1.76s
Presolved: 20703 rows, 8483 columns, 59951 nonzeros
Variable types: 0 continuous, 8483 integer (8412 binary)
Found heuristic solution: objective 38.5123700

Root relaxation: objective 1.778722e+00, 3068 iterations, 0.23 seconds (0.33 work units)

    Nodes    |    Current Node    |     Objective Bounds      |     Work
 Expl Unexpl |  Obj  Depth IntInf | Incumbent    BestBd   Gap | It/Node Time

     0     0    1.77872    0  151   38.51237    1.77872  95.4%     -    2s
H    0     0                       4.4089100    1.77872  59.7%     -    2s
H    0     0                       4.1030190    1.77872  56.6%     -    3s
     0     0    1.96249    0  283    4.10302    1.96249  52.2%     -    3s
H    0     0                       2.5735640    1.96267  23.7%     -    4s
H    0     0                       2.1235640    1.96911  7.27%     -    5s
     0     0    1.97945    0  213    2.12356    1.97945  6.79%     -    5s
     0     0    1.97945    0  832    2.12356    1.97945  6.79%     -    6s
     0     0    1.97945    0  137    2.12356    1.97945  6.79%     -    8s
     0     0    1.97945    0  860    2.12356    1.97945  6.79%     -    9s
     0     0    1.97945    0  789    2.12356    1.97945  6.79%     -   11s
     0     0    1.97946    0  881    2.12356    1.97946  6.79%     -   14s
     0     0    1.97946    0  913    2.12356    1.97946  6.79%     -   14s
     0     0    1.97946    0  831    2.12356    1.97946  6.79%     -   15s
     0     0    1.97946    0  806    2.12356    1.97946  6.79%     -   15s
     0     0    1.97946    0  592    2.12356    1.97946  6.79%     -   16s
     0     0    1.97946    0  604    2.12356    1.97946  6.79%     -   16s
     0     0    1.97946    0  596    2.12356    1.97946  6.79%     -   16s
     0     0    1.97946    0  510    2.12356    1.97946  6.79%     -   17s
     0     0    1.97946    0  438    2.12356    1.97946  6.79%     -   17s
     0     0    1.97946    0  436    2.12356    1.97946  6.79%     -   18s
     0     0    1.97946    0  866    2.12356    1.97946  6.79%     -   20s
     0     0    1.97959    0  876    2.12356    1.97959  6.78%     -   21s
     0     0    1.97961    0  760    2.12356    1.97961  6.78%     -   21s
     0     0    1.97961    0  751    2.12356    1.97961  6.78%     -   21s
     0     0    1.98730    0  662    2.12356    1.98730  6.42%     -   23s
     0     0    1.98732    0  548    2.12356    1.98732  6.42%     -   23s
     0     0    1.98732    0  513    2.12356    1.98732  6.42%     -   23s
     0     0    1.98884    0  931    2.12356    1.98884  6.34%     -   24s
     0     0    1.98922    0  851    2.12356    1.98922  6.33%     -   24s
     0     0    1.98923    0  888    2.12356    1.98923  6.33%     -   24s
     0     0    1.98923    0  844    2.12356    1.98923  6.33%     -   24s
     0     0    1.99461    0  421    2.12356    1.99461  6.07%     -   25s
     0     0    1.99466    0  424    2.12356    1.99466  6.07%     -   25s
     0     0    1.99980    0  444    2.12356    1.99980  5.83%     -   26s
     0     0    1.99980    0  472    2.12356    1.99980  5.83%     -   26s
     0     0    2.00546    0  676    2.12356    2.00546  5.56%     -   27s
     0     0    2.00549    0  681    2.12356    2.00549  5.56%     -   27s
     0     0    2.00549    0  681    2.12356    2.00549  5.56%     -   27s
     0     0    2.01171    0  583    2.12356    2.01171  5.27%     -   28s
     0     0    2.01192    0  608    2.12356    2.01192  5.26%     -   28s
     0     0    2.01192    0  578    2.12356    2.01192  5.26%     -   28s
     0     0    2.01713    0  887    2.12356    2.01713  5.01%     -   29s
     0     0    2.01713    0  140    2.12356    2.01713  5.01%     -   30s
     0     0    2.01713    0 1288    2.12356    2.01713  5.01%     -   32s
     0     0    2.01713    0  538    2.12356    2.01713  5.01%     -   34s
     0     0    2.01713    0  487    2.12356    2.01713  5.01%     -   35s
     0     0    2.01713    0  402    2.12356    2.01713  5.01%     -   35s
     0     0    2.01713    0  388    2.12356    2.01713  5.01%     -   35s
     0     0    2.01713    0  548    2.12356    2.01713  5.01%     -   36s
     0     0    2.01713    0  495    2.12356    2.01713  5.01%     -   37s
     0     0    2.01713    0  440    2.12356    2.01713  5.01%     -   37s
     0     0    2.01713    0  373    2.12356    2.01713  5.01%     -   37s
     0     0    2.01713    0  582    2.12356    2.01713  5.01%     -   38s
     0     0    2.01713    0  582    2.12356    2.01713  5.01%     -   38s
     0     0    2.01713    0  594    2.12356    2.01713  5.01%     -   38s
     0     0    2.01713    0  638    2.12356    2.01713  5.01%     -   39s
     0     0    2.01713    0  521    2.12356    2.01713  5.01%     -   39s
     0     0    2.01713    0  520    2.12356    2.01713  5.01%     -   39s
     0     0    2.02032    0  884    2.12356    2.02032  4.86%     -   40s
     0     0    2.02034    0  920    2.12356    2.02034  4.86%     -   40s
     0     0    2.02035    0  849    2.12356    2.02035  4.86%     -   41s

Cutting planes:
  Learned: 165
  Gomory: 1
  Cover: 6
  Implied bound: 89
  Clique: 6
  MIR: 25
  Zero half: 3
  RLT: 168
  Relax-and-lift: 15
  BQP: 120

Explored 1 nodes (68059 simplex iterations) in 41.03 seconds (31.37 work units)
Thread count was 28 (of 56 available processors)

Solution count 5: 2.12356 2.57356 4.10302 ... 38.5124

Optimal solution found (tolerance 1.00e-04)
Best objective 2.123564000000e+00, best bound 2.123564000000e+00, gap 0.0000%

Solver Wallclock Time (for this epsilon): 41.048280000686646 s
Python wallclock Time (for this epsilon): 49.46235275268555 s


Total Elapsed Time (since program call): 1263.7681736946106 s

Results:

I = 2.123564 mA
C = 80.0 points
C ~= 32.0 km^2

Minimum Epsilon for this instance = 10
Maximum Epsilon for this instance = 100

Current Epsilon = 80


Preprocessing Time (for this epsilon): 0.011875629425048828 s


Updated solution vectors:
sol_I = [-1.223564,-1.223564,-1.6735639999999998,-1.6735639999999998,-1.6735639999999998,-1.6735639999999998,-2.123564,-2.123564]
sol_C = [24.0,20.0,39.0,53.0,58.0,61.0,79.0,80.0]
sol_eps = [10,20,30,40,50,60,70,80]
sol_gap = [0.0,0.0,0.0,0.0,2.924999964459829e-07,1.7999999935014444e-07,0.0,0.0]
